TOUR_SECTION
64
168
48
52
121
141
174
155
190
126
37
100
53
111
184
83
77
142
150
96
9
165
163
160
102
144
18
178
11
32
57
34
44
189
132
139
23
134
183
198
74
76
106
80
19
161
109
99
186
27
15
197
26
173
39
3
200
45
90
115
179
60
137
120
86
151
16
154
50
42
36
24
181
143
69
195
12
46
175
152
196
31
82
72
88
63
2
21
95
138
107
5
157
166
112
131
188
62
192
8
81
94
119
117
91
14
10
33
67
170
158
56
66
70
116
182
125
130
187
153
122
164
40
92
1
162
35
149
118
177
114
159
61
98
71
135
28
79
38
87
191
110
20
172
108
54
129
136
140
68
194
84
148
156
93
73
6
65
147
43
146
97
41
22
103
51
128
113
133
7
145
4
169
104
123
30
176
89
29
13
75
199
58
124
85
193
78
127
105
185
25
171
167
49
17
55
47
180
59
101
-1
EOF